(declare-const c_0 Real)
(declare-const c_1 Real)
(declare-const c_2 Real)
(declare-const c_3 Real)
(declare-const c_4 Real)
(declare-const c_5 Real)
(declare-const c_6 Real)
(declare-const c_7 Real)
(declare-const c_8 Real)
(declare-const c_9 Real)
(declare-const c_10 Real)
(declare-const c_11 Real)
(declare-const c_12 Real)
(declare-const c_13 Real)
(declare-const c_14 Real)
(declare-const c_15 Real)
(declare-const c_16 Real)
(declare-const c_17 Real)
(declare-const c_18 Real)
(declare-const c_19 Real)
(declare-const c_20 Real)
(declare-const c_21 Real)
(declare-const c_22 Real)
(declare-const c_23 Real)
(declare-const c_24 Real)
(declare-const c_25 Real)
(declare-const c_26 Real)
(declare-const c_27 Real)
(declare-const c_28 Real)
(declare-const c_29 Real)
(declare-const c_30 Real)
(declare-const c_31 Real)
(declare-const c_32 Real)
(declare-const c_33 Real)
(declare-const c_34 Real)
(declare-const c_35 Real)
(declare-const c_36 Real)
(declare-const c_37 Real)
(declare-const c_38 Real)
(declare-const c_39 Real)
(declare-const c_40 Real)
(declare-const c_41 Real)
(declare-const c_42 Real)
(declare-const c_43 Real)
(declare-const c_44 Real)
(declare-const c_45 Real)
(declare-const c_46 Real)
(declare-const c_47 Real)
(declare-const c_48 Real)
(declare-const c_49 Real)
(declare-const c_50 Real)
(declare-const c_51 Real)
(declare-const c_52 Real)
(declare-const c_53 Real)
(declare-const c_54 Real)
(declare-const c_55 Real)
(declare-const s_0 Real)
(declare-const s_1 Real)
(declare-const s_2 Real)
(declare-const s_3 Real)
(declare-const s_4 Real)
(declare-const s_5 Real)
(declare-const s_6 Real)
(declare-const s_7 Real)
(declare-const s_8 Real)
(declare-const s_9 Real)
(declare-const s_10 Real)
(declare-const s_11 Real)
(declare-const s_12 Real)
(declare-const s_13 Real)
(declare-const s_14 Real)
(declare-const s_15 Real)
(declare-const s_16 Real)
(declare-const s_17 Real)
(declare-const s_18 Real)
(declare-const s_19 Real)
(declare-const s_20 Real)
(declare-const s_21 Real)
(declare-const s_22 Real)
(declare-const s_23 Real)
(declare-const s_24 Real)
(declare-const s_25 Real)
(declare-const s_26 Real)
(declare-const s_27 Real)
(declare-const s_28 Real)
(declare-const s_29 Real)
(declare-const s_30 Real)
(declare-const s_31 Real)
(declare-const s_32 Real)
(declare-const s_33 Real)
(declare-const s_34 Real)
(declare-const s_35 Real)
(declare-const s_36 Real)
(declare-const s_37 Real)
(declare-const s_38 Real)
(declare-const s_39 Real)
(declare-const s_40 Real)
(declare-const s_41 Real)
(declare-const s_42 Real)
(declare-const s_43 Real)
(declare-const s_44 Real)
(declare-const s_45 Real)
(declare-const s_46 Real)
(declare-const s_47 Real)
(declare-const s_48 Real)
(declare-const s_49 Real)
(declare-const s_50 Real)
(declare-const s_51 Real)
(declare-const s_52 Real)
(declare-const s_53 Real)
(declare-const s_54 Real)
(declare-const s_55 Real)
(assert (forall ((a Real) (b Real) (i Real) (j Real) (k Real) (l Real) (m Real) ) (=> (and (>= (+ (* 1024 1) (* 1 a ) ) 0) (>= (+ (* 1023 1) (* (- 1) a ) ) 0) (>= (+ (* 1024 1) (* 1 b ) ) 0) (>= (+ (* 1023 1) (* (- 1) b ) ) 0) (>= (+ (* 1024 1) (* 1 i ) ) 0) (>= (+ (* 1023 1) (* (- 1) i ) ) 0) (>= (+ (* 1024 1) (* 1 j ) ) 0) (>= (+ (* 1023 1) (* (- 1) j ) ) 0) (>= (+ (* 1024 1) (* 1 k ) ) 0) (>= (+ (* 1023 1) (* (- 1) k ) ) 0) (>= (+ (* 1024 1) (* 1 l ) ) 0) (>= (+ (* 1023 1) (* (- 1) l ) ) 0) (>= (+ (* 1024 1) (* 1 m ) ) 0) (>= (+ (* 1023 1) (* (- 1) m ) ) 0) ) (>= (+ (* 1 a s_1 ) (* 1 b s_2 ) (* 1 i s_3 ) (* 1 j s_4 ) (* 1 k s_5 ) (* 1 l s_6 ) (* 1 m s_7 ) (* 1 s_0 ) ) 0) )))
(assert (forall ((a Real) (b Real) (i Real) (j Real) (k Real) (l Real) (m Real) ) (=> (and (>= (+ (* 1024 1) (* 1 a ) ) 0) (>= (+ (* 1023 1) (* (- 1) a ) ) 0) (>= (+ (* 1024 1) (* 1 b ) ) 0) (>= (+ (* 1023 1) (* (- 1) b ) ) 0) (>= (+ (* 1024 1) (* 1 i ) ) 0) (>= (+ (* 1023 1) (* (- 1) i ) ) 0) (>= (+ (* 1024 1) (* 1 j ) ) 0) (>= (+ (* 1023 1) (* (- 1) j ) ) 0) (>= (+ (* 1024 1) (* 1 k ) ) 0) (>= (+ (* 1023 1) (* (- 1) k ) ) 0) (>= (+ (* 1024 1) (* 1 l ) ) 0) (>= (+ (* 1023 1) (* (- 1) l ) ) 0) (>= (+ (* 1024 1) (* 1 m ) ) 0) (>= (+ (* 1023 1) (* (- 1) m ) ) 0) ) (>= (+ (* 1 a c_1 ) (* 1 b c_2 ) (* 1 c_0 ) (* 1 c_3 i ) (* 1 c_4 j ) (* 1 c_5 k ) (* 1 c_6 l ) (* 1 c_7 m ) ) 0) )))
(assert (forall ((a Real) (b Real) (i Real) (j Real) (k Real) (l Real) (m Real) ) (=> (and (>= (+ (* 1023 1) (* (- 1) m ) ) 0) (>= (+ (* 1024 1) (* 1 m ) ) 0) (>= (+ (* 1023 1) (* (- 1) l ) ) 0) (>= (+ (* 1024 1) (* 1 l ) ) 0) (>= (+ (* 1023 1) (* (- 1) k ) ) 0) (>= (+ (* 1024 1) (* 1 k ) ) 0) (>= (+ (* 1023 1) (* (- 1) j ) ) 0) (>= (+ (* 1024 1) (* 1 j ) ) 0) (>= (+ (* 1023 1) (* (- 1) i ) ) 0) (>= (+ (* 1024 1) (* 1 i ) ) 0) (>= (+ (* 1023 1) (* (- 1) b ) ) 0) (>= (+ (* 1024 1) (* 1 b ) ) 0) (>= (+ (* 1023 1) (* (- 1) a ) ) 0) (>= (+ (* 1024 1) (* 1 a ) ) 0) (>= (+ (* 1 a s_1 ) (* 1 b s_2 ) (* 1 i s_3 ) (* 1 j s_4 ) (* 1 k s_5 ) (* 1 l s_6 ) (* 1 m s_7 ) (* 1 s_0 ) ) 0) ) (>= (+ (* 1 a s_41 ) (* 1 b s_42 ) (* 1 j s_44 ) (* 1 k s_45 ) (* 1 l s_46 ) (* 1 m s_47 ) (* 1 s_40 ) ) 0) )))
(assert (forall ((a Real) (b Real) (i Real) (j Real) (k Real) (l Real) (m Real) ) (=> (and (>= (+ (* 1023 1) (* (- 1) m ) ) 0) (>= (+ (* 1024 1) (* 1 m ) ) 0) (>= (+ (* 1023 1) (* (- 1) l ) ) 0) (>= (+ (* 1024 1) (* 1 l ) ) 0) (>= (+ (* 1023 1) (* (- 1) k ) ) 0) (>= (+ (* 1024 1) (* 1 k ) ) 0) (>= (+ (* 1023 1) (* (- 1) j ) ) 0) (>= (+ (* 1024 1) (* 1 j ) ) 0) (>= (+ (* 1023 1) (* (- 1) i ) ) 0) (>= (+ (* 1024 1) (* 1 i ) ) 0) (>= (+ (* 1023 1) (* (- 1) b ) ) 0) (>= (+ (* 1024 1) (* 1 b ) ) 0) (>= (+ (* 1023 1) (* (- 1) a ) ) 0) (>= (+ (* 1024 1) (* 1 a ) ) 0) (>= (+ (* 1 a s_1 ) (* 1 b s_2 ) (* 1 i s_3 ) (* 1 j s_4 ) (* 1 k s_5 ) (* 1 l s_6 ) (* 1 m s_7 ) (* 1 s_0 ) ) 0) ) (>= (+ (* 1 a c_41 ) (* 1 b c_42 ) (* 1 c_40 ) (* 1 c_44 j ) (* 1 c_45 k ) (* 1 c_46 l ) (* 1 c_47 m ) ) 0) )))
(assert (forall ((a Real) (b Real) (i Real) (j Real) (k Real) (l Real) (m Real) ) (=> (and (>= (+ (* 1023 1) (* (- 1) m ) ) 0) (>= (+ (* 1024 1) (* 1 m ) ) 0) (>= (+ (* 1023 1) (* (- 1) l ) ) 0) (>= (+ (* 1024 1) (* 1 l ) ) 0) (>= (+ (* 1023 1) (* (- 1) k ) ) 0) (>= (+ (* 1024 1) (* 1 k ) ) 0) (>= (+ (* 1023 1) (* (- 1) j ) ) 0) (>= (+ (* 1024 1) (* 1 j ) ) 0) (>= (+ (* 1023 1) (* (- 1) i ) ) 0) (>= (+ (* 1024 1) (* 1 i ) ) 0) (>= (+ (* 1023 1) (* (- 1) b ) ) 0) (>= (+ (* 1024 1) (* 1 b ) ) 0) (>= (+ (* 1023 1) (* (- 1) a ) ) 0) (>= (+ (* 1024 1) (* 1 a ) ) 0) (>= (+ (* 1 a s_1 ) (* 1 b s_2 ) (* 1 i s_3 ) (* 1 j s_4 ) (* 1 k s_5 ) (* 1 l s_6 ) (* 1 m s_7 ) (* 1 s_0 ) ) 0) ) (>= (+ (* (- 1) 1) (* 1 a c_1 ) (* (- 1) a c_41 ) (* 1 b c_2 ) (* (- 1) b c_42 ) (* 1 c_0 ) (* 1 c_3 i ) (* 1 c_4 j ) (* (- 1) c_40 ) (* (- 1) c_44 j ) (* (- 1) c_45 k ) (* (- 1) c_46 l ) (* (- 1) c_47 m ) (* 1 c_5 k ) (* 1 c_6 l ) (* 1 c_7 m ) ) 0) )))
(assert (forall ((a Real) (b Real) (i Real) (j Real) (k Real) (l Real) (m Real) ) (=> (and (>= (* 1 m ) 0) (>= (+ (* 2 1) (* (- 1) a ) ) 0) (>= (+ (* (- 2) 1) (* 1 a ) ) 0) (>= (+ (* 7 1) (* (- 1) b ) ) 0) (>= (+ (* (- 7) 1) (* 1 b ) ) 0) (>= (* (- 1) i ) 0) (>= (* 1 i ) 0) (>= (* (- 1) j ) 0) (>= (* 1 j ) 0) (>= (+ (* 3 1) (* (- 1) k ) ) 0) (>= (+ (* (- 3) 1) (* 1 k ) ) 0) (>= (* (- 1) l ) 0) (>= (* 1 l ) 0) (>= (+ (* 1003 1) (* (- 1) m ) ) 0) (>= (+ (* (- 1003) 1) (* 1 m ) ) 0) (>= (+ (* 1 a s_9 ) (* 1 b s_10 ) (* 1 i s_11 ) (* 1 j s_12 ) (* 1 k s_13 ) (* 1 l s_14 ) (* 1 m s_15 ) (* 1 s_8 ) ) 0) ) (>= (+ (* 1 a s_9 ) (* 1 b s_10 ) (* 1 i s_11 ) (* 1 j s_12 ) (* 1 k s_13 ) (* 1 l s_14 ) (* 1 m s_15 ) (* 1 s_8 ) ) 0) )))
(assert (forall ((a Real) (b Real) (i Real) (j Real) (k Real) (l Real) (m Real) ) (=> (and (>= (* 1 m ) 0) (>= (+ (* 2 1) (* (- 1) a ) ) 0) (>= (+ (* (- 2) 1) (* 1 a ) ) 0) (>= (+ (* 7 1) (* (- 1) b ) ) 0) (>= (+ (* (- 7) 1) (* 1 b ) ) 0) (>= (* (- 1) i ) 0) (>= (* 1 i ) 0) (>= (* (- 1) j ) 0) (>= (* 1 j ) 0) (>= (+ (* 3 1) (* (- 1) k ) ) 0) (>= (+ (* (- 3) 1) (* 1 k ) ) 0) (>= (* (- 1) l ) 0) (>= (* 1 l ) 0) (>= (+ (* 1003 1) (* (- 1) m ) ) 0) (>= (+ (* (- 1003) 1) (* 1 m ) ) 0) (>= (+ (* 1 a s_9 ) (* 1 b s_10 ) (* 1 i s_11 ) (* 1 j s_12 ) (* 1 k s_13 ) (* 1 l s_14 ) (* 1 m s_15 ) (* 1 s_8 ) ) 0) ) (>= (+ (* 1 a c_9 ) (* 1 b c_10 ) (* 1 c_11 i ) (* 1 c_12 j ) (* 1 c_13 k ) (* 1 c_14 l ) (* 1 c_15 m ) (* 1 c_8 ) ) 0) )))
(assert (forall ((a Real) (b Real) (i Real) (j Real) (k Real) (l Real) (m Real) ) (=> (and (>= (* 1 m ) 0) (>= (+ (* 2 1) (* (- 1) a ) ) 0) (>= (+ (* (- 2) 1) (* 1 a ) ) 0) (>= (+ (* 7 1) (* (- 1) b ) ) 0) (>= (+ (* (- 7) 1) (* 1 b ) ) 0) (>= (* (- 1) i ) 0) (>= (* 1 i ) 0) (>= (* (- 1) j ) 0) (>= (* 1 j ) 0) (>= (+ (* 3 1) (* (- 1) k ) ) 0) (>= (+ (* (- 3) 1) (* 1 k ) ) 0) (>= (* (- 1) l ) 0) (>= (* 1 l ) 0) (>= (+ (* 1003 1) (* (- 1) m ) ) 0) (>= (+ (* (- 1003) 1) (* 1 m ) ) 0) (>= (+ (* 1 a s_9 ) (* 1 b s_10 ) (* 1 i s_11 ) (* 1 j s_12 ) (* 1 k s_13 ) (* 1 l s_14 ) (* 1 m s_15 ) (* 1 s_8 ) ) 0) ) (>= (* (- 1) 1) 0) )))
(assert (forall ((a Real) (b Real) (i Real) (j Real) (k Real) (l Real) (m Real) ) (=> (and (>= (+ (* (- 1) 1) (* (- 1) m ) ) 0) (>= (+ (* 2 1) (* (- 1) a ) ) 0) (>= (+ (* (- 2) 1) (* 1 a ) ) 0) (>= (+ (* 7 1) (* (- 1) b ) ) 0) (>= (+ (* (- 7) 1) (* 1 b ) ) 0) (>= (* (- 1) i ) 0) (>= (* 1 i ) 0) (>= (* (- 1) j ) 0) (>= (* 1 j ) 0) (>= (+ (* 3 1) (* (- 1) k ) ) 0) (>= (+ (* (- 3) 1) (* 1 k ) ) 0) (>= (* (- 1) l ) 0) (>= (* 1 l ) 0) (>= (+ (* 1003 1) (* (- 1) m ) ) 0) (>= (+ (* (- 1003) 1) (* 1 m ) ) 0) (>= (+ (* 1 a s_9 ) (* 1 b s_10 ) (* 1 i s_11 ) (* 1 j s_12 ) (* 1 k s_13 ) (* 1 l s_14 ) (* 1 m s_15 ) (* 1 s_8 ) ) 0) ) (>= (+ (* 1 a s_17 ) (* 1 b s_18 ) (* 1 i s_19 ) (* 1 j s_20 ) (* 1 k s_21 ) (* 1 l s_22 ) (* 1 m s_23 ) (* 1 s_16 ) (* 1 s_22 ) ) 0) )))
(assert (forall ((a Real) (b Real) (i Real) (j Real) (k Real) (l Real) (m Real) ) (=> (and (>= (+ (* (- 1) 1) (* (- 1) m ) ) 0) (>= (+ (* 2 1) (* (- 1) a ) ) 0) (>= (+ (* (- 2) 1) (* 1 a ) ) 0) (>= (+ (* 7 1) (* (- 1) b ) ) 0) (>= (+ (* (- 7) 1) (* 1 b ) ) 0) (>= (* (- 1) i ) 0) (>= (* 1 i ) 0) (>= (* (- 1) j ) 0) (>= (* 1 j ) 0) (>= (+ (* 3 1) (* (- 1) k ) ) 0) (>= (+ (* (- 3) 1) (* 1 k ) ) 0) (>= (* (- 1) l ) 0) (>= (* 1 l ) 0) (>= (+ (* 1003 1) (* (- 1) m ) ) 0) (>= (+ (* (- 1003) 1) (* 1 m ) ) 0) (>= (+ (* 1 a s_9 ) (* 1 b s_10 ) (* 1 i s_11 ) (* 1 j s_12 ) (* 1 k s_13 ) (* 1 l s_14 ) (* 1 m s_15 ) (* 1 s_8 ) ) 0) ) (>= (+ (* 1 a c_17 ) (* 1 b c_18 ) (* 1 c_16 ) (* 1 c_19 i ) (* 1 c_20 j ) (* 1 c_21 k ) (* 1 c_22 ) (* 1 c_22 l ) (* 1 c_23 m ) ) 0) )))
(assert (forall ((a Real) (b Real) (i Real) (j Real) (k Real) (l Real) (m Real) ) (=> (and (>= (+ (* (- 1) 1) (* (- 1) m ) ) 0) (>= (+ (* 2 1) (* (- 1) a ) ) 0) (>= (+ (* (- 2) 1) (* 1 a ) ) 0) (>= (+ (* 7 1) (* (- 1) b ) ) 0) (>= (+ (* (- 7) 1) (* 1 b ) ) 0) (>= (* (- 1) i ) 0) (>= (* 1 i ) 0) (>= (* (- 1) j ) 0) (>= (* 1 j ) 0) (>= (+ (* 3 1) (* (- 1) k ) ) 0) (>= (+ (* (- 3) 1) (* 1 k ) ) 0) (>= (* (- 1) l ) 0) (>= (* 1 l ) 0) (>= (+ (* 1003 1) (* (- 1) m ) ) 0) (>= (+ (* (- 1003) 1) (* 1 m ) ) 0) (>= (+ (* 1 a s_9 ) (* 1 b s_10 ) (* 1 i s_11 ) (* 1 j s_12 ) (* 1 k s_13 ) (* 1 l s_14 ) (* 1 m s_15 ) (* 1 s_8 ) ) 0) ) (>= (+ (* (- 1) 1) (* (- 1) a c_17 ) (* 1 a c_9 ) (* 1 b c_10 ) (* (- 1) b c_18 ) (* 1 c_11 i ) (* 1 c_12 j ) (* 1 c_13 k ) (* 1 c_14 l ) (* 1 c_15 m ) (* (- 1) c_16 ) (* (- 1) c_19 i ) (* (- 1) c_20 j ) (* (- 1) c_21 k ) (* (- 1) c_22 ) (* (- 1) c_22 l ) (* (- 1) c_23 m ) (* 1 c_8 ) ) 0) )))
(assert (forall ((a Real) (b Real) (i Real) (j Real) (k Real) (l Real) (m Real) ) (=> (and (>= (+ (* (- 1) 1) (* 1 b ) (* (- 1) l ) ) 0) (>= (+ (* 1024 1) (* 1 m ) ) 0) (>= (+ (* 1023 1) (* (- 1) m ) ) 0) (>= (+ (* 2 1) (* (- 1) a ) ) 0) (>= (+ (* (- 2) 1) (* 1 a ) ) 0) (>= (+ (* 7 1) (* (- 1) b ) ) 0) (>= (+ (* (- 7) 1) (* 1 b ) ) 0) (>= (* (- 1) i ) 0) (>= (* 1 i ) 0) (>= (* (- 1) j ) 0) (>= (* 1 j ) 0) (>= (+ (* 3 1) (* (- 1) k ) ) 0) (>= (+ (* (- 3) 1) (* 1 k ) ) 0) (>= (* (- 1) l ) 0) (>= (* 1 l ) 0) (>= (+ (* 1 a s_17 ) (* 1 b s_18 ) (* 1 i s_19 ) (* 1 j s_20 ) (* 1 k s_21 ) (* 1 l s_22 ) (* 1 m s_23 ) (* 1 s_16 ) ) 0) ) (>= (+ (* 1 a s_9 ) (* 1 b s_10 ) (* 1 i s_11 ) (* 1 i s_15 ) (* 1 j s_12 ) (* 1 j s_15 ) (* 1 k s_13 ) (* 1 k s_15 ) (* 1 l s_14 ) (* 1 l s_15 ) (* 1000 s_15 ) (* 1 s_8 ) ) 0) )))
(assert (forall ((a Real) (b Real) (i Real) (j Real) (k Real) (l Real) (m Real) ) (=> (and (>= (+ (* (- 1) 1) (* 1 b ) (* (- 1) l ) ) 0) (>= (+ (* 1024 1) (* 1 m ) ) 0) (>= (+ (* 1023 1) (* (- 1) m ) ) 0) (>= (+ (* 2 1) (* (- 1) a ) ) 0) (>= (+ (* (- 2) 1) (* 1 a ) ) 0) (>= (+ (* 7 1) (* (- 1) b ) ) 0) (>= (+ (* (- 7) 1) (* 1 b ) ) 0) (>= (* (- 1) i ) 0) (>= (* 1 i ) 0) (>= (* (- 1) j ) 0) (>= (* 1 j ) 0) (>= (+ (* 3 1) (* (- 1) k ) ) 0) (>= (+ (* (- 3) 1) (* 1 k ) ) 0) (>= (* (- 1) l ) 0) (>= (* 1 l ) 0) (>= (+ (* 1 a s_17 ) (* 1 b s_18 ) (* 1 i s_19 ) (* 1 j s_20 ) (* 1 k s_21 ) (* 1 l s_22 ) (* 1 m s_23 ) (* 1 s_16 ) ) 0) ) (>= (+ (* 1 a c_9 ) (* 1 b c_10 ) (* 1 c_11 i ) (* 1 c_12 j ) (* 1 c_13 k ) (* 1 c_14 l ) (* 1000 c_15 ) (* 1 c_15 i ) (* 1 c_15 j ) (* 1 c_15 k ) (* 1 c_15 l ) (* 1 c_8 ) ) 0) )))
(assert (forall ((a Real) (b Real) (i Real) (j Real) (k Real) (l Real) (m Real) ) (=> (and (>= (+ (* (- 1) 1) (* 1 b ) (* (- 1) l ) ) 0) (>= (+ (* 1024 1) (* 1 m ) ) 0) (>= (+ (* 1023 1) (* (- 1) m ) ) 0) (>= (+ (* 2 1) (* (- 1) a ) ) 0) (>= (+ (* (- 2) 1) (* 1 a ) ) 0) (>= (+ (* 7 1) (* (- 1) b ) ) 0) (>= (+ (* (- 7) 1) (* 1 b ) ) 0) (>= (* (- 1) i ) 0) (>= (* 1 i ) 0) (>= (* (- 1) j ) 0) (>= (* 1 j ) 0) (>= (+ (* 3 1) (* (- 1) k ) ) 0) (>= (+ (* (- 3) 1) (* 1 k ) ) 0) (>= (* (- 1) l ) 0) (>= (* 1 l ) 0) (>= (+ (* 1 a s_17 ) (* 1 b s_18 ) (* 1 i s_19 ) (* 1 j s_20 ) (* 1 k s_21 ) (* 1 l s_22 ) (* 1 m s_23 ) (* 1 s_16 ) ) 0) ) (>= (+ (* (- 1) 1) (* 1 a c_17 ) (* (- 1) a c_9 ) (* (- 1) b c_10 ) (* 1 b c_18 ) (* (- 1) c_11 i ) (* (- 1) c_12 j ) (* (- 1) c_13 k ) (* (- 1) c_14 l ) (* (- 1000) c_15 ) (* (- 1) c_15 i ) (* (- 1) c_15 j ) (* (- 1) c_15 k ) (* (- 1) c_15 l ) (* 1 c_16 ) (* 1 c_19 i ) (* 1 c_20 j ) (* 1 c_21 k ) (* 1 c_22 l ) (* 1 c_23 m ) (* (- 1) c_8 ) ) 0) )))
(assert (forall ((a Real) (b Real) (i Real) (j Real) (k Real) (l Real) (m Real) ) (=> (and (>= (+ (* (- 1) b ) (* 1 l ) ) 0) (>= (+ (* 1024 1) (* 1 m ) ) 0) (>= (+ (* 1023 1) (* (- 1) m ) ) 0) (>= (+ (* 2 1) (* (- 1) a ) ) 0) (>= (+ (* (- 2) 1) (* 1 a ) ) 0) (>= (+ (* 7 1) (* (- 1) b ) ) 0) (>= (+ (* (- 7) 1) (* 1 b ) ) 0) (>= (* (- 1) i ) 0) (>= (* 1 i ) 0) (>= (* (- 1) j ) 0) (>= (* 1 j ) 0) (>= (+ (* 3 1) (* (- 1) k ) ) 0) (>= (+ (* (- 3) 1) (* 1 k ) ) 0) (>= (* (- 1) l ) 0) (>= (* 1 l ) 0) (>= (+ (* 1 a s_17 ) (* 1 b s_18 ) (* 1 i s_19 ) (* 1 j s_20 ) (* 1 k s_21 ) (* 1 l s_22 ) (* 1 m s_23 ) (* 1 s_16 ) ) 0) ) (>= (+ (* 1 a s_25 ) (* 1 b s_26 ) (* 1 i s_27 ) (* 1 j s_28 ) (* 1 k s_29 ) (* 1 l s_30 ) (* 1 m s_31 ) (* 1 s_24 ) (* (- 1) s_29 ) ) 0) )))
(assert (forall ((a Real) (b Real) (i Real) (j Real) (k Real) (l Real) (m Real) ) (=> (and (>= (+ (* (- 1) b ) (* 1 l ) ) 0) (>= (+ (* 1024 1) (* 1 m ) ) 0) (>= (+ (* 1023 1) (* (- 1) m ) ) 0) (>= (+ (* 2 1) (* (- 1) a ) ) 0) (>= (+ (* (- 2) 1) (* 1 a ) ) 0) (>= (+ (* 7 1) (* (- 1) b ) ) 0) (>= (+ (* (- 7) 1) (* 1 b ) ) 0) (>= (* (- 1) i ) 0) (>= (* 1 i ) 0) (>= (* (- 1) j ) 0) (>= (* 1 j ) 0) (>= (+ (* 3 1) (* (- 1) k ) ) 0) (>= (+ (* (- 3) 1) (* 1 k ) ) 0) (>= (* (- 1) l ) 0) (>= (* 1 l ) 0) (>= (+ (* 1 a s_17 ) (* 1 b s_18 ) (* 1 i s_19 ) (* 1 j s_20 ) (* 1 k s_21 ) (* 1 l s_22 ) (* 1 m s_23 ) (* 1 s_16 ) ) 0) ) (>= (+ (* 1 a c_25 ) (* 1 b c_26 ) (* 1 c_24 ) (* 1 c_27 i ) (* 1 c_28 j ) (* (- 1) c_29 ) (* 1 c_29 k ) (* 1 c_30 l ) (* 1 c_31 m ) ) 0) )))
(assert (forall ((a Real) (b Real) (i Real) (j Real) (k Real) (l Real) (m Real) ) (=> (and (>= (+ (* (- 1) b ) (* 1 l ) ) 0) (>= (+ (* 1024 1) (* 1 m ) ) 0) (>= (+ (* 1023 1) (* (- 1) m ) ) 0) (>= (+ (* 2 1) (* (- 1) a ) ) 0) (>= (+ (* (- 2) 1) (* 1 a ) ) 0) (>= (+ (* 7 1) (* (- 1) b ) ) 0) (>= (+ (* (- 7) 1) (* 1 b ) ) 0) (>= (* (- 1) i ) 0) (>= (* 1 i ) 0) (>= (* (- 1) j ) 0) (>= (* 1 j ) 0) (>= (+ (* 3 1) (* (- 1) k ) ) 0) (>= (+ (* (- 3) 1) (* 1 k ) ) 0) (>= (* (- 1) l ) 0) (>= (* 1 l ) 0) (>= (+ (* 1 a s_17 ) (* 1 b s_18 ) (* 1 i s_19 ) (* 1 j s_20 ) (* 1 k s_21 ) (* 1 l s_22 ) (* 1 m s_23 ) (* 1 s_16 ) ) 0) ) (>= (+ (* (- 1) 1) (* 1 a c_17 ) (* (- 1) a c_25 ) (* 1 b c_18 ) (* (- 1) b c_26 ) (* 1 c_16 ) (* 1 c_19 i ) (* 1 c_20 j ) (* 1 c_21 k ) (* 1 c_22 l ) (* 1 c_23 m ) (* (- 1) c_24 ) (* (- 1) c_27 i ) (* (- 1) c_28 j ) (* 1 c_29 ) (* (- 1) c_29 k ) (* (- 1) c_30 l ) (* (- 1) c_31 m ) ) 0) )))
(assert (forall ((a Real) (b Real) (i Real) (j Real) (k Real) (l Real) (m Real) ) (=> (and (>= (* 1 k ) 0) (>= (+ (* 1024 1) (* 1 b ) ) 0) (>= (+ (* 1024 1) (* 1 l ) ) 0) (>= (+ (* 1024 1) (* 1 m ) ) 0) (>= (+ (* 1023 1) (* (- 1) m ) ) 0) (>= (+ (* 1023 1) (* (- 1) l ) ) 0) (>= (+ (* 1023 1) (* (- 1) b ) ) 0) (>= (+ (* 2 1) (* (- 1) a ) ) 0) (>= (+ (* (- 2) 1) (* 1 a ) ) 0) (>= (* (- 1) i ) 0) (>= (* 1 i ) 0) (>= (* (- 1) j ) 0) (>= (* 1 j ) 0) (>= (+ (* 3 1) (* (- 1) k ) ) 0) (>= (+ (* (- 3) 1) (* 1 k ) ) 0) (>= (+ (* 1 a s_25 ) (* 1 b s_26 ) (* 1 i s_27 ) (* 1 j s_28 ) (* 1 k s_29 ) (* 1 l s_30 ) (* 1 m s_31 ) (* 1 s_24 ) ) 0) ) (>= (+ (* 1 a s_17 ) (* 1 i s_18 ) (* 1 i s_19 ) (* 1 j s_18 ) (* 1 j s_20 ) (* 1 k s_18 ) (* 1 k s_21 ) (* 1 m s_23 ) (* 1 s_16 ) (* 4 s_18 ) ) 0) )))
(assert (forall ((a Real) (b Real) (i Real) (j Real) (k Real) (l Real) (m Real) ) (=> (and (>= (* 1 k ) 0) (>= (+ (* 1024 1) (* 1 b ) ) 0) (>= (+ (* 1024 1) (* 1 l ) ) 0) (>= (+ (* 1024 1) (* 1 m ) ) 0) (>= (+ (* 1023 1) (* (- 1) m ) ) 0) (>= (+ (* 1023 1) (* (- 1) l ) ) 0) (>= (+ (* 1023 1) (* (- 1) b ) ) 0) (>= (+ (* 2 1) (* (- 1) a ) ) 0) (>= (+ (* (- 2) 1) (* 1 a ) ) 0) (>= (* (- 1) i ) 0) (>= (* 1 i ) 0) (>= (* (- 1) j ) 0) (>= (* 1 j ) 0) (>= (+ (* 3 1) (* (- 1) k ) ) 0) (>= (+ (* (- 3) 1) (* 1 k ) ) 0) (>= (+ (* 1 a s_25 ) (* 1 b s_26 ) (* 1 i s_27 ) (* 1 j s_28 ) (* 1 k s_29 ) (* 1 l s_30 ) (* 1 m s_31 ) (* 1 s_24 ) ) 0) ) (>= (+ (* 1 a c_17 ) (* 1 c_16 ) (* 4 c_18 ) (* 1 c_18 i ) (* 1 c_18 j ) (* 1 c_18 k ) (* 1 c_19 i ) (* 1 c_20 j ) (* 1 c_21 k ) (* 1 c_23 m ) ) 0) )))
(assert (forall ((a Real) (b Real) (i Real) (j Real) (k Real) (l Real) (m Real) ) (=> (and (>= (* 1 k ) 0) (>= (+ (* 1024 1) (* 1 b ) ) 0) (>= (+ (* 1024 1) (* 1 l ) ) 0) (>= (+ (* 1024 1) (* 1 m ) ) 0) (>= (+ (* 1023 1) (* (- 1) m ) ) 0) (>= (+ (* 1023 1) (* (- 1) l ) ) 0) (>= (+ (* 1023 1) (* (- 1) b ) ) 0) (>= (+ (* 2 1) (* (- 1) a ) ) 0) (>= (+ (* (- 2) 1) (* 1 a ) ) 0) (>= (* (- 1) i ) 0) (>= (* 1 i ) 0) (>= (* (- 1) j ) 0) (>= (* 1 j ) 0) (>= (+ (* 3 1) (* (- 1) k ) ) 0) (>= (+ (* (- 3) 1) (* 1 k ) ) 0) (>= (+ (* 1 a s_25 ) (* 1 b s_26 ) (* 1 i s_27 ) (* 1 j s_28 ) (* 1 k s_29 ) (* 1 l s_30 ) (* 1 m s_31 ) (* 1 s_24 ) ) 0) ) (>= (+ (* (- 1) 1) (* (- 1) a c_17 ) (* 1 a c_25 ) (* 1 b c_26 ) (* (- 1) c_16 ) (* (- 4) c_18 ) (* (- 1) c_18 i ) (* (- 1) c_18 j ) (* (- 1) c_18 k ) (* (- 1) c_19 i ) (* (- 1) c_20 j ) (* (- 1) c_21 k ) (* (- 1) c_23 m ) (* 1 c_24 ) (* 1 c_27 i ) (* 1 c_28 j ) (* 1 c_29 k ) (* 1 c_30 l ) (* 1 c_31 m ) ) 0) )))
(assert (forall ((a Real) (b Real) (i Real) (j Real) (k Real) (l Real) (m Real) ) (=> (and (>= (+ (* (- 1) 1) (* (- 1) k ) ) 0) (>= (+ (* 1024 1) (* 1 b ) ) 0) (>= (+ (* 1024 1) (* 1 l ) ) 0) (>= (+ (* 1024 1) (* 1 m ) ) 0) (>= (+ (* 1023 1) (* (- 1) m ) ) 0) (>= (+ (* 1023 1) (* (- 1) l ) ) 0) (>= (+ (* 1023 1) (* (- 1) b ) ) 0) (>= (+ (* 2 1) (* (- 1) a ) ) 0) (>= (+ (* (- 2) 1) (* 1 a ) ) 0) (>= (* (- 1) i ) 0) (>= (* 1 i ) 0) (>= (* (- 1) j ) 0) (>= (* 1 j ) 0) (>= (+ (* 3 1) (* (- 1) k ) ) 0) (>= (+ (* (- 3) 1) (* 1 k ) ) 0) (>= (+ (* 1 a s_25 ) (* 1 b s_26 ) (* 1 i s_27 ) (* 1 j s_28 ) (* 1 k s_29 ) (* 1 l s_30 ) (* 1 m s_31 ) (* 1 s_24 ) ) 0) ) (>= (+ (* 1 a s_33 ) (* 1 b s_34 ) (* 1 i s_35 ) (* 1 j s_36 ) (* 1 k s_37 ) (* 1 l s_38 ) (* 1 m s_39 ) (* 1 s_32 ) (* 1 s_36 ) ) 0) )))
(assert (forall ((a Real) (b Real) (i Real) (j Real) (k Real) (l Real) (m Real) ) (=> (and (>= (+ (* (- 1) 1) (* (- 1) k ) ) 0) (>= (+ (* 1024 1) (* 1 b ) ) 0) (>= (+ (* 1024 1) (* 1 l ) ) 0) (>= (+ (* 1024 1) (* 1 m ) ) 0) (>= (+ (* 1023 1) (* (- 1) m ) ) 0) (>= (+ (* 1023 1) (* (- 1) l ) ) 0) (>= (+ (* 1023 1) (* (- 1) b ) ) 0) (>= (+ (* 2 1) (* (- 1) a ) ) 0) (>= (+ (* (- 2) 1) (* 1 a ) ) 0) (>= (* (- 1) i ) 0) (>= (* 1 i ) 0) (>= (* (- 1) j ) 0) (>= (* 1 j ) 0) (>= (+ (* 3 1) (* (- 1) k ) ) 0) (>= (+ (* (- 3) 1) (* 1 k ) ) 0) (>= (+ (* 1 a s_25 ) (* 1 b s_26 ) (* 1 i s_27 ) (* 1 j s_28 ) (* 1 k s_29 ) (* 1 l s_30 ) (* 1 m s_31 ) (* 1 s_24 ) ) 0) ) (>= (+ (* 1 a c_33 ) (* 1 b c_34 ) (* 1 c_32 ) (* 1 c_35 i ) (* 1 c_36 ) (* 1 c_36 j ) (* 1 c_37 k ) (* 1 c_38 l ) (* 1 c_39 m ) ) 0) )))
(assert (forall ((a Real) (b Real) (i Real) (j Real) (k Real) (l Real) (m Real) ) (=> (and (>= (+ (* (- 1) 1) (* (- 1) k ) ) 0) (>= (+ (* 1024 1) (* 1 b ) ) 0) (>= (+ (* 1024 1) (* 1 l ) ) 0) (>= (+ (* 1024 1) (* 1 m ) ) 0) (>= (+ (* 1023 1) (* (- 1) m ) ) 0) (>= (+ (* 1023 1) (* (- 1) l ) ) 0) (>= (+ (* 1023 1) (* (- 1) b ) ) 0) (>= (+ (* 2 1) (* (- 1) a ) ) 0) (>= (+ (* (- 2) 1) (* 1 a ) ) 0) (>= (* (- 1) i ) 0) (>= (* 1 i ) 0) (>= (* (- 1) j ) 0) (>= (* 1 j ) 0) (>= (+ (* 3 1) (* (- 1) k ) ) 0) (>= (+ (* (- 3) 1) (* 1 k ) ) 0) (>= (+ (* 1 a s_25 ) (* 1 b s_26 ) (* 1 i s_27 ) (* 1 j s_28 ) (* 1 k s_29 ) (* 1 l s_30 ) (* 1 m s_31 ) (* 1 s_24 ) ) 0) ) (>= (+ (* (- 1) 1) (* 1 a c_25 ) (* (- 1) a c_33 ) (* 1 b c_26 ) (* (- 1) b c_34 ) (* 1 c_24 ) (* 1 c_27 i ) (* 1 c_28 j ) (* 1 c_29 k ) (* 1 c_30 l ) (* 1 c_31 m ) (* (- 1) c_32 ) (* (- 1) c_35 i ) (* (- 1) c_36 ) (* (- 1) c_36 j ) (* (- 1) c_37 k ) (* (- 1) c_38 l ) (* (- 1) c_39 m ) ) 0) )))
(assert (forall ((a Real) (b Real) (i Real) (j Real) (k Real) (l Real) (m Real) ) (=> (and (>= (+ (* (- 1) 1) (* 1 a ) (* (- 1) j ) ) 0) (>= (+ (* 1024 1) (* 1 b ) ) 0) (>= (+ (* 1024 1) (* 1 k ) ) 0) (>= (+ (* 1024 1) (* 1 l ) ) 0) (>= (+ (* 1024 1) (* 1 m ) ) 0) (>= (+ (* 1023 1) (* (- 1) m ) ) 0) (>= (+ (* 1023 1) (* (- 1) l ) ) 0) (>= (+ (* 1023 1) (* (- 1) k ) ) 0) (>= (+ (* 1023 1) (* (- 1) b ) ) 0) (>= (+ (* 2 1) (* (- 1) a ) ) 0) (>= (+ (* (- 2) 1) (* 1 a ) ) 0) (>= (* (- 1) i ) 0) (>= (* 1 i ) 0) (>= (* (- 1) j ) 0) (>= (* 1 j ) 0) (>= (+ (* 1 a s_33 ) (* 1 b s_34 ) (* 1 i s_35 ) (* 1 j s_36 ) (* 1 k s_37 ) (* 1 l s_38 ) (* 1 m s_39 ) (* 1 s_32 ) ) 0) ) (>= (+ (* 1 a s_25 ) (* 1 b s_26 ) (* 1 i s_27 ) (* 1 i s_29 ) (* 1 j s_28 ) (* 1 j s_29 ) (* 1 l s_30 ) (* 1 m s_31 ) (* 1 s_24 ) (* 3 s_29 ) ) 0) )))
(assert (forall ((a Real) (b Real) (i Real) (j Real) (k Real) (l Real) (m Real) ) (=> (and (>= (+ (* (- 1) 1) (* 1 a ) (* (- 1) j ) ) 0) (>= (+ (* 1024 1) (* 1 b ) ) 0) (>= (+ (* 1024 1) (* 1 k ) ) 0) (>= (+ (* 1024 1) (* 1 l ) ) 0) (>= (+ (* 1024 1) (* 1 m ) ) 0) (>= (+ (* 1023 1) (* (- 1) m ) ) 0) (>= (+ (* 1023 1) (* (- 1) l ) ) 0) (>= (+ (* 1023 1) (* (- 1) k ) ) 0) (>= (+ (* 1023 1) (* (- 1) b ) ) 0) (>= (+ (* 2 1) (* (- 1) a ) ) 0) (>= (+ (* (- 2) 1) (* 1 a ) ) 0) (>= (* (- 1) i ) 0) (>= (* 1 i ) 0) (>= (* (- 1) j ) 0) (>= (* 1 j ) 0) (>= (+ (* 1 a s_33 ) (* 1 b s_34 ) (* 1 i s_35 ) (* 1 j s_36 ) (* 1 k s_37 ) (* 1 l s_38 ) (* 1 m s_39 ) (* 1 s_32 ) ) 0) ) (>= (+ (* 1 a c_25 ) (* 1 b c_26 ) (* 1 c_24 ) (* 1 c_27 i ) (* 1 c_28 j ) (* 3 c_29 ) (* 1 c_29 i ) (* 1 c_29 j ) (* 1 c_30 l ) (* 1 c_31 m ) ) 0) )))
(assert (forall ((a Real) (b Real) (i Real) (j Real) (k Real) (l Real) (m Real) ) (=> (and (>= (+ (* (- 1) 1) (* 1 a ) (* (- 1) j ) ) 0) (>= (+ (* 1024 1) (* 1 b ) ) 0) (>= (+ (* 1024 1) (* 1 k ) ) 0) (>= (+ (* 1024 1) (* 1 l ) ) 0) (>= (+ (* 1024 1) (* 1 m ) ) 0) (>= (+ (* 1023 1) (* (- 1) m ) ) 0) (>= (+ (* 1023 1) (* (- 1) l ) ) 0) (>= (+ (* 1023 1) (* (- 1) k ) ) 0) (>= (+ (* 1023 1) (* (- 1) b ) ) 0) (>= (+ (* 2 1) (* (- 1) a ) ) 0) (>= (+ (* (- 2) 1) (* 1 a ) ) 0) (>= (* (- 1) i ) 0) (>= (* 1 i ) 0) (>= (* (- 1) j ) 0) (>= (* 1 j ) 0) (>= (+ (* 1 a s_33 ) (* 1 b s_34 ) (* 1 i s_35 ) (* 1 j s_36 ) (* 1 k s_37 ) (* 1 l s_38 ) (* 1 m s_39 ) (* 1 s_32 ) ) 0) ) (>= (+ (* (- 1) 1) (* (- 1) a c_25 ) (* 1 a c_33 ) (* (- 1) b c_26 ) (* 1 b c_34 ) (* (- 1) c_24 ) (* (- 1) c_27 i ) (* (- 1) c_28 j ) (* (- 3) c_29 ) (* (- 1) c_29 i ) (* (- 1) c_29 j ) (* (- 1) c_30 l ) (* (- 1) c_31 m ) (* 1 c_32 ) (* 1 c_35 i ) (* 1 c_36 j ) (* 1 c_37 k ) (* 1 c_38 l ) (* 1 c_39 m ) ) 0) )))
(assert (forall ((a Real) (b Real) (i Real) (j Real) (k Real) (l Real) (m Real) ) (=> (and (>= (+ (* (- 1) a ) (* 1 j ) ) 0) (>= (+ (* 1024 1) (* 1 b ) ) 0) (>= (+ (* 1024 1) (* 1 k ) ) 0) (>= (+ (* 1024 1) (* 1 l ) ) 0) (>= (+ (* 1024 1) (* 1 m ) ) 0) (>= (+ (* 1023 1) (* (- 1) m ) ) 0) (>= (+ (* 1023 1) (* (- 1) l ) ) 0) (>= (+ (* 1023 1) (* (- 1) k ) ) 0) (>= (+ (* 1023 1) (* (- 1) b ) ) 0) (>= (+ (* 2 1) (* (- 1) a ) ) 0) (>= (+ (* (- 2) 1) (* 1 a ) ) 0) (>= (* (- 1) i ) 0) (>= (* 1 i ) 0) (>= (* (- 1) j ) 0) (>= (* 1 j ) 0) (>= (+ (* 1 a s_33 ) (* 1 b s_34 ) (* 1 i s_35 ) (* 1 j s_36 ) (* 1 k s_37 ) (* 1 l s_38 ) (* 1 m s_39 ) (* 1 s_32 ) ) 0) ) (>= (+ (* 1 a s_41 ) (* 1 b s_42 ) (* 1 i s_43 ) (* 1 j s_44 ) (* 1 k s_45 ) (* 1 l s_46 ) (* 1 m s_47 ) (* 1 s_40 ) (* 1 s_43 ) ) 0) )))
(assert (forall ((a Real) (b Real) (i Real) (j Real) (k Real) (l Real) (m Real) ) (=> (and (>= (+ (* (- 1) a ) (* 1 j ) ) 0) (>= (+ (* 1024 1) (* 1 b ) ) 0) (>= (+ (* 1024 1) (* 1 k ) ) 0) (>= (+ (* 1024 1) (* 1 l ) ) 0) (>= (+ (* 1024 1) (* 1 m ) ) 0) (>= (+ (* 1023 1) (* (- 1) m ) ) 0) (>= (+ (* 1023 1) (* (- 1) l ) ) 0) (>= (+ (* 1023 1) (* (- 1) k ) ) 0) (>= (+ (* 1023 1) (* (- 1) b ) ) 0) (>= (+ (* 2 1) (* (- 1) a ) ) 0) (>= (+ (* (- 2) 1) (* 1 a ) ) 0) (>= (* (- 1) i ) 0) (>= (* 1 i ) 0) (>= (* (- 1) j ) 0) (>= (* 1 j ) 0) (>= (+ (* 1 a s_33 ) (* 1 b s_34 ) (* 1 i s_35 ) (* 1 j s_36 ) (* 1 k s_37 ) (* 1 l s_38 ) (* 1 m s_39 ) (* 1 s_32 ) ) 0) ) (>= (+ (* 1 a c_41 ) (* 1 b c_42 ) (* 1 c_40 ) (* 1 c_43 ) (* 1 c_43 i ) (* 1 c_44 j ) (* 1 c_45 k ) (* 1 c_46 l ) (* 1 c_47 m ) ) 0) )))
(assert (forall ((a Real) (b Real) (i Real) (j Real) (k Real) (l Real) (m Real) ) (=> (and (>= (+ (* (- 1) a ) (* 1 j ) ) 0) (>= (+ (* 1024 1) (* 1 b ) ) 0) (>= (+ (* 1024 1) (* 1 k ) ) 0) (>= (+ (* 1024 1) (* 1 l ) ) 0) (>= (+ (* 1024 1) (* 1 m ) ) 0) (>= (+ (* 1023 1) (* (- 1) m ) ) 0) (>= (+ (* 1023 1) (* (- 1) l ) ) 0) (>= (+ (* 1023 1) (* (- 1) k ) ) 0) (>= (+ (* 1023 1) (* (- 1) b ) ) 0) (>= (+ (* 2 1) (* (- 1) a ) ) 0) (>= (+ (* (- 2) 1) (* 1 a ) ) 0) (>= (* (- 1) i ) 0) (>= (* 1 i ) 0) (>= (* (- 1) j ) 0) (>= (* 1 j ) 0) (>= (+ (* 1 a s_33 ) (* 1 b s_34 ) (* 1 i s_35 ) (* 1 j s_36 ) (* 1 k s_37 ) (* 1 l s_38 ) (* 1 m s_39 ) (* 1 s_32 ) ) 0) ) (>= (+ (* (- 1) 1) (* 1 a c_33 ) (* (- 1) a c_41 ) (* 1 b c_34 ) (* (- 1) b c_42 ) (* 1 c_32 ) (* 1 c_35 i ) (* 1 c_36 j ) (* 1 c_37 k ) (* 1 c_38 l ) (* 1 c_39 m ) (* (- 1) c_40 ) (* (- 1) c_43 ) (* (- 1) c_43 i ) (* (- 1) c_44 j ) (* (- 1) c_45 k ) (* (- 1) c_46 l ) (* (- 1) c_47 m ) ) 0) )))
(assert (forall ((a Real) (b Real) (i Real) (j Real) (k Real) (l Real) (m Real) ) (=> (and (>= (+ (* 99 1) (* (- 1) i ) ) 0) (>= (+ (* 1024 1) (* 1 a ) ) 0) (>= (+ (* 1024 1) (* 1 b ) ) 0) (>= (+ (* 1024 1) (* 1 j ) ) 0) (>= (+ (* 1024 1) (* 1 k ) ) 0) (>= (+ (* 1024 1) (* 1 l ) ) 0) (>= (+ (* 1024 1) (* 1 m ) ) 0) (>= (+ (* 1023 1) (* (- 1) m ) ) 0) (>= (+ (* 1023 1) (* (- 1) l ) ) 0) (>= (+ (* 1023 1) (* (- 1) k ) ) 0) (>= (+ (* 1023 1) (* (- 1) j ) ) 0) (>= (+ (* 1023 1) (* (- 1) b ) ) 0) (>= (+ (* 1023 1) (* (- 1) a ) ) 0) (>= (* (- 1) i ) 0) (>= (* 1 i ) 0) (>= (+ (* 1 a s_41 ) (* 1 b s_42 ) (* 1 i s_43 ) (* 1 j s_44 ) (* 1 k s_45 ) (* 1 l s_46 ) (* 1 m s_47 ) (* 1 s_40 ) ) 0) ) (>= (+ (* 1 b s_34 ) (* 1 i s_33 ) (* 1 i s_35 ) (* 1 k s_37 ) (* 1 l s_38 ) (* 1 m s_39 ) (* 1 s_32 ) (* 2 s_33 ) ) 0) )))
(assert (forall ((a Real) (b Real) (i Real) (j Real) (k Real) (l Real) (m Real) ) (=> (and (>= (+ (* 99 1) (* (- 1) i ) ) 0) (>= (+ (* 1024 1) (* 1 a ) ) 0) (>= (+ (* 1024 1) (* 1 b ) ) 0) (>= (+ (* 1024 1) (* 1 j ) ) 0) (>= (+ (* 1024 1) (* 1 k ) ) 0) (>= (+ (* 1024 1) (* 1 l ) ) 0) (>= (+ (* 1024 1) (* 1 m ) ) 0) (>= (+ (* 1023 1) (* (- 1) m ) ) 0) (>= (+ (* 1023 1) (* (- 1) l ) ) 0) (>= (+ (* 1023 1) (* (- 1) k ) ) 0) (>= (+ (* 1023 1) (* (- 1) j ) ) 0) (>= (+ (* 1023 1) (* (- 1) b ) ) 0) (>= (+ (* 1023 1) (* (- 1) a ) ) 0) (>= (* (- 1) i ) 0) (>= (* 1 i ) 0) (>= (+ (* 1 a s_41 ) (* 1 b s_42 ) (* 1 i s_43 ) (* 1 j s_44 ) (* 1 k s_45 ) (* 1 l s_46 ) (* 1 m s_47 ) (* 1 s_40 ) ) 0) ) (>= (+ (* 1 b c_34 ) (* 1 c_32 ) (* 2 c_33 ) (* 1 c_33 i ) (* 1 c_35 i ) (* 1 c_37 k ) (* 1 c_38 l ) (* 1 c_39 m ) ) 0) )))
(assert (forall ((a Real) (b Real) (i Real) (j Real) (k Real) (l Real) (m Real) ) (=> (and (>= (+ (* 99 1) (* (- 1) i ) ) 0) (>= (+ (* 1024 1) (* 1 a ) ) 0) (>= (+ (* 1024 1) (* 1 b ) ) 0) (>= (+ (* 1024 1) (* 1 j ) ) 0) (>= (+ (* 1024 1) (* 1 k ) ) 0) (>= (+ (* 1024 1) (* 1 l ) ) 0) (>= (+ (* 1024 1) (* 1 m ) ) 0) (>= (+ (* 1023 1) (* (- 1) m ) ) 0) (>= (+ (* 1023 1) (* (- 1) l ) ) 0) (>= (+ (* 1023 1) (* (- 1) k ) ) 0) (>= (+ (* 1023 1) (* (- 1) j ) ) 0) (>= (+ (* 1023 1) (* (- 1) b ) ) 0) (>= (+ (* 1023 1) (* (- 1) a ) ) 0) (>= (* (- 1) i ) 0) (>= (* 1 i ) 0) (>= (+ (* 1 a s_41 ) (* 1 b s_42 ) (* 1 i s_43 ) (* 1 j s_44 ) (* 1 k s_45 ) (* 1 l s_46 ) (* 1 m s_47 ) (* 1 s_40 ) ) 0) ) (>= (+ (* (- 1) 1) (* 1 a c_41 ) (* (- 1) b c_34 ) (* 1 b c_42 ) (* (- 1) c_32 ) (* (- 2) c_33 ) (* (- 1) c_33 i ) (* (- 1) c_35 i ) (* (- 1) c_37 k ) (* (- 1) c_38 l ) (* (- 1) c_39 m ) (* 1 c_40 ) (* 1 c_43 i ) (* 1 c_44 j ) (* 1 c_45 k ) (* 1 c_46 l ) (* 1 c_47 m ) ) 0) )))
(assert (forall ((a Real) (b Real) (i Real) (j Real) (k Real) (l Real) (m Real) ) (=> (and (>= (+ (* (- 100) 1) (* 1 i ) ) 0) (>= (+ (* 1024 1) (* 1 a ) ) 0) (>= (+ (* 1024 1) (* 1 b ) ) 0) (>= (+ (* 1024 1) (* 1 j ) ) 0) (>= (+ (* 1024 1) (* 1 k ) ) 0) (>= (+ (* 1024 1) (* 1 l ) ) 0) (>= (+ (* 1024 1) (* 1 m ) ) 0) (>= (+ (* 1023 1) (* (- 1) m ) ) 0) (>= (+ (* 1023 1) (* (- 1) l ) ) 0) (>= (+ (* 1023 1) (* (- 1) k ) ) 0) (>= (+ (* 1023 1) (* (- 1) j ) ) 0) (>= (+ (* 1023 1) (* (- 1) b ) ) 0) (>= (+ (* 1023 1) (* (- 1) a ) ) 0) (>= (* (- 1) i ) 0) (>= (* 1 i ) 0) (>= (+ (* 1 a s_41 ) (* 1 b s_42 ) (* 1 i s_43 ) (* 1 j s_44 ) (* 1 k s_45 ) (* 1 l s_46 ) (* 1 m s_47 ) (* 1 s_40 ) ) 0) ) (>= (+ (* 1 a s_49 ) (* 1 b s_50 ) (* 1 i s_51 ) (* 1 j s_52 ) (* 1 k s_53 ) (* 1 l s_54 ) (* 1 m s_55 ) (* 1 s_48 ) ) 0) )))
(assert (forall ((a Real) (b Real) (i Real) (j Real) (k Real) (l Real) (m Real) ) (=> (and (>= (+ (* (- 100) 1) (* 1 i ) ) 0) (>= (+ (* 1024 1) (* 1 a ) ) 0) (>= (+ (* 1024 1) (* 1 b ) ) 0) (>= (+ (* 1024 1) (* 1 j ) ) 0) (>= (+ (* 1024 1) (* 1 k ) ) 0) (>= (+ (* 1024 1) (* 1 l ) ) 0) (>= (+ (* 1024 1) (* 1 m ) ) 0) (>= (+ (* 1023 1) (* (- 1) m ) ) 0) (>= (+ (* 1023 1) (* (- 1) l ) ) 0) (>= (+ (* 1023 1) (* (- 1) k ) ) 0) (>= (+ (* 1023 1) (* (- 1) j ) ) 0) (>= (+ (* 1023 1) (* (- 1) b ) ) 0) (>= (+ (* 1023 1) (* (- 1) a ) ) 0) (>= (* (- 1) i ) 0) (>= (* 1 i ) 0) (>= (+ (* 1 a s_41 ) (* 1 b s_42 ) (* 1 i s_43 ) (* 1 j s_44 ) (* 1 k s_45 ) (* 1 l s_46 ) (* 1 m s_47 ) (* 1 s_40 ) ) 0) ) (>= (+ (* 1 a c_49 ) (* 1 b c_50 ) (* 1 c_48 ) (* 1 c_51 i ) (* 1 c_52 j ) (* 1 c_53 k ) (* 1 c_54 l ) (* 1 c_55 m ) ) 0) )))

(check-sat)
(get-model)
